ITEM: TIMESTEP
0
ITEM: NUMBER OF ATOMS
5
ITEM: BOX BOUNDS pp pp ff
0.0 10.0
0.0 10.0
0.0 10.0
ITEM: ATOMS id type x y z vx vy vz
1 2 1.0 1.0 2.0 0.0 0.0 0.0
2 1 1.8 1.0 2.0 0.0 0.0 0.0
3 1 0.7 1.7 2.0 0.0 0.0 0.0
4 3 5.0 5.0 0.0 0.0 0.0 0.0
5 2 8.0 8.0 8.0 0.0 0.0 0.0
ITEM: TIMESTEP
1
ITEM: NUMBER OF ATOMS
5
ITEM: BOX BOUNDS pp pp ff
0.0 10.0
0.0 10.0
0.0 10.0
ITEM: ATOMS id type x y z vx vy vz
1 2 1.0 1.0 2.3 0.0 0.0 0.0
2 1 1.8 1.0 2.3 0.0 0.0 0.0
3 1 0.7 1.7 2.3 0.0 0.0 0.0
4 3 5.0 5.0 0.0 0.0 0.0 0.0
5 2 8.0 8.0 8.2 0.0 0.0 0.0
