ITEM: TIMESTEP
0
ITEM: NUMBER OF ATOMS
13
ITEM: BOX BOUNDS pp pp pp
0 10
0 10
0 10
ITEM: ATOMS id type x y z
1 3 0.0 0.0 0.0
2 2 2.0 2.0 2.0
3 1 2.0 2.0 2.9
4 2 5.0 2.0 2.0
5 1 5.0 2.0 2.9
6 1 5.9 2.0 2.0
7 2 2.0 5.0 2.0
8 1 2.0 5.0 2.9
9 1 2.9 5.0 2.0
10 1 2.0 5.9 2.0
11 2 8.0 8.0 2.0
12 1 8.0 8.0 2.9
13 1 8.9 8.0 2.0
ITEM: TIMESTEP
1
ITEM: NUMBER OF ATOMS
13
ITEM: BOX BOUNDS pp pp pp
0 10
0 10
0 10
ITEM: ATOMS id type x y z
1 3 0.0 0.0 0.0
2 2 2.0 2.0 2.1
3 1 2.0 2.0 3.0
4 2 5.0 2.0 2.1
5 1 5.0 2.0 3.0
6 1 5.9 2.0 2.1
7 2 2.0 5.0 2.1
8 1 2.0 5.0 3.0
9 1 2.9 5.0 2.1
10 1 2.0 5.9 2.1
11 2 8.0 8.0 2.1
12 1 8.0 8.0 3.0
13 1 8.9 8.0 2.1
